(benchmark gametime
:status unknown
:logic QF_AUFBV
:extrafuns ((gtINDEX121  BitVec[32]))
:extrafuns ((gtFIELD__bitsForTID0__gtAGG____anonstruct_D_Work_4  Array[32:32]))
:extrafuns ((gtINDEX122  BitVec[32]))
:extrafuns ((gtAGG__rtDWork  BitVec[32]))
:extrafuns ((gtINDEX119  BitVec[32]))
:extrafuns ((gtINDEX120  BitVec[32]))
:extrafuns ((gtINDEX117  BitVec[32]))
:extrafuns ((gtINDEX118  BitVec[32]))
:extrafuns ((gtINDEX115  BitVec[32]))
:extrafuns ((gtINDEX116  BitVec[32]))
:extrafuns ((gtINDEX114  BitVec[32]))
:extrafuns ((gtINDEX113  BitVec[32]))
:extrafuns ((gtINDEX112  BitVec[32]))
:extrafuns ((gtINDEX111  BitVec[32]))
:extrafuns ((gtINDEX109  BitVec[32]))
:extrafuns ((gtINDEX110  BitVec[32]))
:extrafuns ((gtINDEX107  BitVec[32]))
:extrafuns ((gtINDEX108  BitVec[32]))
:extrafuns ((gtINDEX106  BitVec[32]))
:extrafuns ((gtINDEX104  BitVec[32]))
:extrafuns ((gtINDEX105  BitVec[32]))
:extrafuns ((gtINDEX102  BitVec[32]))
:extrafuns ((gtINDEX103  BitVec[32]))
:extrafuns ((gtINDEX101  BitVec[32]))
:extrafuns ((gtINDEX100  BitVec[32]))
:extrafuns ((gtINDEX98  BitVec[32]))
:extrafuns ((gtINDEX99  BitVec[32]))
:extrafuns ((gtINDEX96  BitVec[32]))
:extrafuns ((gtINDEX97  BitVec[32]))
:extrafuns ((gtINDEX94  BitVec[32]))
:extrafuns ((gtINDEX95  BitVec[32]))
:extrafuns ((gtINDEX93  BitVec[32]))
:extrafuns ((gtINDEX91  BitVec[32]))
:extrafuns ((gtINDEX92  BitVec[32]))
:extrafuns ((gtINDEX89  BitVec[32]))
:extrafuns ((gtINDEX90  BitVec[32]))
:extrafuns ((gtINDEX87  BitVec[32]))
:extrafuns ((gtINDEX88  BitVec[32]))
:extrafuns ((gtINDEX85  BitVec[32]))
:extrafuns ((gtINDEX86  BitVec[32]))
:extrafuns ((gtINDEX83  BitVec[32]))
:extrafuns ((gtINDEX84  BitVec[32]))
:extrafuns ((gtINDEX81  BitVec[32]))
:extrafuns ((gtINDEX82  BitVec[32]))
:extrafuns ((gtINDEX79  BitVec[32]))
:extrafuns ((gtINDEX80  BitVec[32]))
:extrafuns ((gtINDEX77  BitVec[32]))
:extrafuns ((gtINDEX78  BitVec[32]))
:extrafuns ((gtINDEX75  BitVec[32]))
:extrafuns ((gtINDEX76  BitVec[32]))
:extrafuns ((gtINDEX74  BitVec[32]))
:extrafuns ((gtINDEX72  BitVec[32]))
:extrafuns ((gtINDEX73  BitVec[32]))
:extrafuns ((gtINDEX71  BitVec[32]))
:extrafuns ((gtINDEX69  BitVec[32]))
:extrafuns ((gtINDEX70  BitVec[32]))
:extrafuns ((gtINDEX67  BitVec[32]))
:extrafuns ((gtINDEX68  BitVec[32]))
:extrafuns ((gtINDEX65  BitVec[32]))
:extrafuns ((gtINDEX66  BitVec[32]))
:extrafuns ((gtINDEX64  BitVec[32]))
:extrafuns ((gtINDEX63  BitVec[32]))
:extrafuns ((gtINDEX61  BitVec[32]))
:extrafuns ((gtINDEX62  BitVec[32]))
:extrafuns ((gtINDEX59  BitVec[32]))
:extrafuns ((gtINDEX60  BitVec[32]))
:extrafuns ((gtINDEX57  BitVec[32]))
:extrafuns ((gtINDEX58  BitVec[32]))
:extrafuns ((gtINDEX56  BitVec[32]))
:extrafuns ((gtINDEX55  BitVec[32]))
:extrafuns ((gtINDEX54  BitVec[32]))
:extrafuns ((gtINDEX53  BitVec[32]))
:extrafuns ((gtINDEX52  BitVec[32]))
:extrafuns ((gtINDEX51  BitVec[32]))
:extrafuns ((gtINDEX50  BitVec[32]))
:extrafuns ((gtINDEX48  BitVec[32]))
:extrafuns ((gtINDEX49  BitVec[32]))
:extrafuns ((gtINDEX46  BitVec[32]))
:extrafuns ((gtINDEX47  BitVec[32]))
:extrafuns ((gtINDEX44  BitVec[32]))
:extrafuns ((gtINDEX45  BitVec[32]))
:extrafuns ((gtINDEX42  BitVec[32]))
:extrafuns ((gtINDEX43  BitVec[32]))
:extrafuns ((gtINDEX40  BitVec[32]))
:extrafuns ((gtINDEX41  BitVec[32]))
:extrafuns ((gtINDEX39  BitVec[32]))
:extrafuns ((gtINDEX37  BitVec[32]))
:extrafuns ((gtINDEX38  BitVec[32]))
:extrafuns ((gtINDEX35  BitVec[32]))
:extrafuns ((gtINDEX36  BitVec[32]))
:extrafuns ((gtINDEX33  BitVec[32]))
:extrafuns ((gtINDEX34  BitVec[32]))
:extrafuns ((gtINDEX31  BitVec[32]))
:extrafuns ((gtINDEX32  BitVec[32]))
:extrafuns ((gtINDEX29  BitVec[32]))
:extrafuns ((gtINDEX30  BitVec[32]))
:extrafuns ((gtINDEX27  BitVec[32]))
:extrafuns ((gtINDEX28  BitVec[32]))
:extrafuns ((gtINDEX25  BitVec[32]))
:extrafuns ((gtINDEX26  BitVec[32]))
:extrafuns ((gtINDEX23  BitVec[32]))
:extrafuns ((gtINDEX24  BitVec[32]))
:extrafuns ((gtINDEX21  BitVec[32]))
:extrafuns ((gtINDEX22  BitVec[32]))
:extrafuns ((gtINDEX19  BitVec[32]))
:extrafuns ((gtINDEX20  BitVec[32]))
:extrafuns ((gtINDEX17  BitVec[32]))
:extrafuns ((gtINDEX18  BitVec[32]))
:extrafuns ((gtINDEX15  BitVec[32]))
:extrafuns ((gtINDEX16  BitVec[32]))
:extrafuns ((gtINDEX14  BitVec[32]))
:extrafuns ((gtINDEX13  BitVec[32]))
:extrafuns ((gtINDEX11  BitVec[32]))
:extrafuns ((gtINDEX12  BitVec[32]))
:extrafuns ((gtINDEX9  BitVec[32]))
:extrafuns ((gtINDEX10  BitVec[32]))
:extrafuns ((gtINDEX7  BitVec[32]))
:extrafuns ((gtINDEX8  BitVec[32]))
:extrafuns ((gtINDEX6  BitVec[32]))
:extrafuns ((gtINDEX5  BitVec[32]))
:extrafuns ((gtINDEX4  BitVec[32]))
:extrafuns ((gtINDEX3  BitVec[32]))
:extrafuns ((gtINDEX2  BitVec[32]))
:extrafuns ((gtINDEX1  BitVec[32]))
:extrafuns ((gtINDEX0  BitVec[32]))
:extrafuns ((gtFIELD__is_Eng__gtAGG____anonstruct_bitsForTID0_5_1_  Array[32:1]))
:extrafuns ((gtFIELD__is_Eng__gtAGG____anonstruct_bitsForTID0_5_2_  Array[32:1]))
:extrafuns ((sf_previousEvent_1_  BitVec[32]))
:extrafuns ((sfEvent__2_  BitVec[32]))
:extrafuns ((gtFIELD__is_Eng__gtAGG____anonstruct_bitsForTID0_5  Array[32:1]))
:extrafuns ((gtFIELD__sent__gtAGG____anonstruct_D_Work_4_1_  Array[32:32]))
:extrafuns ((gtFIELD__sent__gtAGG____anonstruct_D_Work_4_2_  Array[32:32]))
:extrafuns ((gtFIELD__is_active_Eng__gtAGG____anonstruct_bitsForTID0_5  Array[32:1]))
:extrafuns ((gtFIELD__temporalCounter_i5__gtAGG____anonstruct_D_Work_4  Array[32:32]))
:extrafuns ((gtFIELD__temporalCounter_i5__gtAGG____anonstruct_D_Work_4_1_  Array[32:32]))
:extrafuns ((gtFIELD__is_PURI__gtAGG____anonstruct_bitsForTID0_5  Array[32:2]))
:extrafuns ((gtFIELD__is_PURI__gtAGG____anonstruct_bitsForTID0_5_1_  Array[32:2]))
:extrafuns ((gtFIELD__URIex__gtAGG____anonstruct_bitsForTID0_5  Array[32:1]))
:extrafuns ((gtFIELD__URIex__gtAGG____anonstruct_bitsForTID0_5_1_  Array[32:1]))
:extrafuns ((gtFIELD__sh_rst__gtAGG____anonstruct_D_Work_4  Array[32:32]))
:extrafuns ((gtFIELD__sh_rst__gtAGG____anonstruct_D_Work_4_1_  Array[32:32]))
:extrafuns ((gtFIELD__n_t_a__gtAGG____anonstruct_D_Work_4  Array[32:32]))
:extrafuns ((gtFIELD__n_t_a__gtAGG____anonstruct_D_Work_4_1_  Array[32:32]))
:extrafuns ((sfEvent__1_  BitVec[32]))
:extrafuns ((gtFIELD__is_active_PURI__gtAGG____anonstruct_bitsForTID0_5  Array[32:1]))
:extrafuns ((gtFIELD__is_PVRP__gtAGG____anonstruct_bitsForTID0_5  Array[32:2]))
:extrafuns ((gtFIELD__is_active_PVRP__gtAGG____anonstruct_bitsForTID0_5  Array[32:1]))
:extrafuns ((gtFIELD__is_PPVARP__gtAGG____anonstruct_bitsForTID0_5_1_  Array[32:2]))
:extrafuns ((gtFIELD__is_PPVARP__gtAGG____anonstruct_bitsForTID0_5_2_  Array[32:2]))
:extrafuns ((gtFIELD__is_active_PPVARP__gtAGG____anonstruct_bitsForTID0_5  Array[32:1]))
:extrafuns ((gtFIELD__temporalCounter_i2__gtAGG____anonstruct_D_Work_4  Array[32:32]))
:extrafuns ((gtFIELD__temporalCounter_i2__gtAGG____anonstruct_D_Work_4_1_  Array[32:32]))
:extrafuns ((gtFIELD__is_PLRI__gtAGG____anonstruct_bitsForTID0_5  Array[32:2]))
:extrafuns ((gtFIELD__is_PLRI__gtAGG____anonstruct_bitsForTID0_5_1_  Array[32:2]))
:extrafuns ((gtFIELD__n_t_n__gtAGG____anonstruct_D_Work_4  Array[32:32]))
:extrafuns ((gtFIELD__n_t_n__gtAGG____anonstruct_D_Work_4_1_  Array[32:32]))
:extrafuns ((gtFIELD__is_active_PLRI__gtAGG____anonstruct_bitsForTID0_5  Array[32:1]))
:extrafuns ((gtFIELD__is_PAVI__gtAGG____anonstruct_bitsForTID0_5  Array[32:3]))
:extrafuns ((gtFIELD__is_active_PAVI__gtAGG____anonstruct_bitsForTID0_5  Array[32:1]))
:extrafuns ((sfEvent_  BitVec[32]))
:extrafuns ((gtFIELD__sent__gtAGG____anonstruct_D_Work_4  Array[32:32]))
:extrafuns ((gtFIELD__is_PPVARP__gtAGG____anonstruct_bitsForTID0_5  Array[32:2]))
:extrafuns ((gtFIELD__temporalCounter_i4__gtAGG____anonstruct_D_Work_4  Array[32:32]))
:extrafuns ((gtFIELD__temporalCounter_i4__gtAGG____anonstruct_D_Work_4_1_  Array[32:32]))
:extrafuns ((gtFIELD__temporalCounter_i3__gtAGG____anonstruct_D_Work_4  Array[32:32]))
:extrafuns ((gtFIELD__temporalCounter_i1__gtAGG____anonstruct_D_Work_4  Array[32:32]))
:extrapreds ((constraint210 ))
:extrapreds ((constraint209 ))
:extrapreds ((constraint208 ))
:extrapreds ((constraint207 ))
:extrapreds ((constraint206 ))
:extrapreds ((constraint205 ))
:extrapreds ((constraint204 ))
:extrapreds ((constraint203 ))
:extrapreds ((constraint202 ))
:extrapreds ((constraint201 ))
:extrapreds ((constraint200 ))
:extrapreds ((constraint199 ))
:extrapreds ((constraint198 ))
:extrapreds ((constraint197 ))
:extrapreds ((constraint196 ))
:extrapreds ((constraint195 ))
:extrapreds ((constraint194 ))
:extrapreds ((constraint193 ))
:extrapreds ((constraint192 ))
:extrapreds ((constraint191 ))
:extrapreds ((constraint190 ))
:extrapreds ((constraint189 ))
:extrapreds ((constraint188 ))
:extrapreds ((constraint187 ))
:extrapreds ((constraint186 ))
:extrapreds ((constraint185 ))
:extrapreds ((constraint184 ))
:extrapreds ((constraint183 ))
:extrapreds ((constraint182 ))
:extrapreds ((constraint181 ))
:extrapreds ((constraint180 ))
:extrapreds ((constraint179 ))
:extrapreds ((constraint178 ))
:extrapreds ((constraint177 ))
:extrapreds ((constraint176 ))
:extrapreds ((constraint175 ))
:extrapreds ((constraint174 ))
:extrapreds ((constraint173 ))
:extrapreds ((constraint172 ))
:extrapreds ((constraint171 ))
:extrapreds ((constraint170 ))
:extrapreds ((constraint169 ))
:extrapreds ((constraint168 ))
:extrapreds ((constraint167 ))
:extrapreds ((constraint166 ))
:extrapreds ((constraint165 ))
:extrapreds ((constraint164 ))
:extrapreds ((constraint163 ))
:extrapreds ((constraint162 ))
:extrapreds ((constraint161 ))
:extrapreds ((constraint160 ))
:extrapreds ((constraint159 ))
:extrapreds ((constraint158 ))
:extrapreds ((constraint157 ))
:extrapreds ((constraint156 ))
:extrapreds ((constraint155 ))
:extrapreds ((constraint154 ))
:extrapreds ((constraint153 ))
:extrapreds ((constraint152 ))
:extrapreds ((constraint151 ))
:extrapreds ((constraint150 ))
:extrapreds ((constraint149 ))
:extrapreds ((constraint148 ))
:extrapreds ((constraint147 ))
:extrapreds ((constraint146 ))
:extrapreds ((constraint145 ))
:extrapreds ((constraint144 ))
:extrapreds ((constraint143 ))
:extrapreds ((constraint142 ))
:extrapreds ((constraint141 ))
:extrapreds ((constraint140 ))
:extrapreds ((constraint139 ))
:extrapreds ((constraint138 ))
:extrapreds ((constraint137 ))
:extrapreds ((constraint136 ))
:extrapreds ((constraint135 ))
:extrapreds ((constraint134 ))
:extrapreds ((constraint133 ))
:extrapreds ((constraint132 ))
:extrapreds ((constraint131 ))
:extrapreds ((constraint130 ))
:extrapreds ((constraint129 ))
:extrapreds ((constraint128 ))
:extrapreds ((constraint127 ))
:extrapreds ((constraint126 ))
:extrapreds ((constraint125 ))
:extrapreds ((constraint124 ))
:extrapreds ((constraint123 ))
:extrapreds ((constraint122 ))
:extrapreds ((constraint121 ))
:extrapreds ((constraint120 ))
:extrapreds ((constraint119 ))
:extrapreds ((constraint118 ))
:extrapreds ((constraint117 ))
:extrapreds ((constraint116 ))
:extrapreds ((constraint115 ))
:extrapreds ((constraint114 ))
:extrapreds ((constraint113 ))
:extrapreds ((constraint112 ))
:extrapreds ((constraint111 ))
:extrapreds ((constraint110 ))
:extrapreds ((constraint109 ))
:extrapreds ((constraint108 ))
:extrapreds ((constraint107 ))
:extrapreds ((constraint106 ))
:extrapreds ((constraint105 ))
:extrapreds ((constraint104 ))
:extrapreds ((constraint103 ))
:extrapreds ((constraint102 ))
:extrapreds ((constraint101 ))
:extrapreds ((constraint100 ))
:extrapreds ((constraint99 ))
:extrapreds ((constraint98 ))
:extrapreds ((constraint97 ))
:extrapreds ((constraint96 ))
:extrapreds ((constraint95 ))
:extrapreds ((constraint94 ))
:extrapreds ((constraint93 ))
:extrapreds ((constraint92 ))
:extrapreds ((constraint91 ))
:extrapreds ((constraint90 ))
:extrapreds ((constraint89 ))
:extrapreds ((constraint88 ))
:extrapreds ((constraint87 ))
:extrapreds ((constraint86 ))
:extrapreds ((constraint85 ))
:extrapreds ((constraint84 ))
:extrapreds ((constraint83 ))
:extrapreds ((constraint82 ))
:extrapreds ((constraint81 ))
:extrapreds ((constraint80 ))
:extrapreds ((constraint79 ))
:extrapreds ((constraint78 ))
:extrapreds ((constraint77 ))
:extrapreds ((constraint76 ))
:extrapreds ((constraint75 ))
:extrapreds ((constraint74 ))
:extrapreds ((constraint73 ))
:extrapreds ((constraint72 ))
:extrapreds ((constraint71 ))
:extrapreds ((constraint70 ))
:extrapreds ((constraint69 ))
:extrapreds ((constraint68 ))
:extrapreds ((constraint67 ))
:extrapreds ((constraint66 ))
:extrapreds ((constraint65 ))
:extrapreds ((constraint64 ))
:extrapreds ((constraint63 ))
:extrapreds ((constraint62 ))
:extrapreds ((constraint61 ))
:extrapreds ((constraint60 ))
:extrapreds ((constraint59 ))
:extrapreds ((constraint58 ))
:extrapreds ((constraint57 ))
:extrapreds ((constraint56 ))
:extrapreds ((constraint55 ))
:extrapreds ((constraint54 ))
:extrapreds ((constraint53 ))
:extrapreds ((constraint52 ))
:extrapreds ((constraint51 ))
:extrapreds ((constraint50 ))
:extrapreds ((constraint49 ))
:extrapreds ((constraint48 ))
:extrapreds ((constraint47 ))
:extrapreds ((constraint46 ))
:extrapreds ((constraint45 ))
:extrapreds ((constraint44 ))
:extrapreds ((constraint43 ))
:extrapreds ((constraint42 ))
:extrapreds ((constraint41 ))
:extrapreds ((constraint40 ))
:extrapreds ((constraint39 ))
:extrapreds ((constraint38 ))
:extrapreds ((constraint37 ))
:extrapreds ((constraint36 ))
:extrapreds ((constraint35 ))
:extrapreds ((constraint34 ))
:extrapreds ((constraint33 ))
:extrapreds ((constraint32 ))
:extrapreds ((constraint31 ))
:extrapreds ((constraint30 ))
:extrapreds ((constraint29 ))
:extrapreds ((constraint28 ))
:extrapreds ((constraint27 ))
:extrapreds ((constraint26 ))
:extrapreds ((constraint25 ))
:extrapreds ((constraint24 ))
:extrapreds ((constraint23 ))
:extrapreds ((constraint22 ))
:extrapreds ((constraint21 ))
:extrapreds ((constraint20 ))
:extrapreds ((constraint19 ))
:extrapreds ((constraint18 ))
:extrapreds ((constraint17 ))
:extrapreds ((constraint16 ))
:extrapreds ((constraint15 ))
:extrapreds ((constraint14 ))
:extrapreds ((constraint13 ))
:extrapreds ((constraint12 ))
:extrapreds ((constraint11 ))
:extrapreds ((constraint10 ))
:extrapreds ((constraint9 ))
:extrapreds ((constraint8 ))
:extrapreds ((constraint7 ))
:extrapreds ((constraint6 ))
:extrapreds ((constraint5 ))
:extrapreds ((constraint4 ))
:extrapreds ((constraint3 ))
:extrapreds ((constraint2 ))
:extrapreds ((constraint1 ))
:extrapreds ((constraint0 ))
:formula
(flet ($x1044 (and constraint0 constraint1 constraint2 constraint3 constraint4 constraint5 constraint6 constraint7 constraint8 constraint9 constraint10 constraint11 constraint12 constraint13 constraint14 constraint15 constraint16 constraint17 constraint18 constraint19 constraint20 constraint21 constraint22 constraint23 constraint24 constraint25 constraint26 constraint27 constraint28 constraint29 constraint30 constraint31 constraint32 constraint33 constraint34 constraint35 constraint36 constraint37 constraint38 constraint39 constraint40 constraint41 constraint42 constraint43 constraint44 constraint45 constraint46 constraint47 constraint48 constraint49 constraint50 constraint51 constraint52 constraint53 constraint54 constraint55 constraint56 constraint57 constraint58 constraint59 constraint60 constraint61 constraint62 constraint63 constraint64 constraint65 constraint66 constraint67 constraint68 constraint69 constraint70 constraint71 constraint72 constraint73 constraint74 constraint75 constraint76 constraint77 constraint78 constraint79 constraint80 constraint81 constraint82 constraint83 constraint84 constraint85 constraint86 constraint87 constraint88 constraint89 constraint90 constraint91 constraint92 constraint93 constraint94 constraint95 constraint96 constraint97 constraint98 constraint99 constraint100 constraint101 constraint102 constraint103 constraint104 constraint105 constraint106 constraint107 constraint108 constraint109 constraint110 constraint111 constraint112 constraint113 constraint114 constraint115 constraint116 constraint117 constraint118 constraint119 constraint120 constraint121 constraint122 constraint123 constraint124 constraint125 constraint126 constraint127 constraint128 constraint129 constraint130 constraint131 constraint132 constraint133 constraint134 constraint135 constraint136 constraint137 constraint138 constraint139 constraint140 constraint141 constraint142 constraint143 constraint144 constraint145 constraint146 constraint147 constraint148 constraint149 constraint150 constraint151 constraint152 constraint153 constraint154 constraint155 constraint156 constraint157 constraint158 constraint159 constraint160 constraint161 constraint162 constraint163 constraint164 constraint165 constraint166 constraint167 constraint168 constraint169 constraint170 constraint171 constraint172 constraint173 constraint174 constraint175 constraint176 constraint177 constraint178 constraint179 constraint180 constraint181 constraint182 constraint183 constraint184 constraint185 constraint186 constraint187 constraint188 constraint189 constraint190 constraint191 constraint192 constraint193 constraint194 constraint195 constraint196 constraint197 constraint198 constraint199 constraint200 constraint201 constraint202 constraint203 constraint204 constraint205 constraint206 constraint207 constraint208 constraint209 constraint210))
(let (?x619 (select gtFIELD__bitsForTID0__gtAGG____anonstruct_D_Work_4 gtINDEX121))
(let (?x615 (select gtFIELD__bitsForTID0__gtAGG____anonstruct_D_Work_4 gtINDEX119))
(let (?x611 (select gtFIELD__bitsForTID0__gtAGG____anonstruct_D_Work_4 gtINDEX117))
(let (?x607 (select gtFIELD__bitsForTID0__gtAGG____anonstruct_D_Work_4 gtINDEX115))
(let (?x599 (select gtFIELD__bitsForTID0__gtAGG____anonstruct_D_Work_4 gtINDEX109))
(let (?x595 (select gtFIELD__bitsForTID0__gtAGG____anonstruct_D_Work_4 gtINDEX107))
(let (?x590 (select gtFIELD__bitsForTID0__gtAGG____anonstruct_D_Work_4 gtINDEX104))
(let (?x586 (select gtFIELD__bitsForTID0__gtAGG____anonstruct_D_Work_4 gtINDEX102))
(flet ($x581 (= gtINDEX99 (select gtFIELD__bitsForTID0__gtAGG____anonstruct_D_Work_4 gtINDEX98)))
(flet ($x577 (= gtINDEX97 (select gtFIELD__bitsForTID0__gtAGG____anonstruct_D_Work_4 gtINDEX96)))
(flet ($x573 (= gtINDEX95 (select gtFIELD__bitsForTID0__gtAGG____anonstruct_D_Work_4 gtINDEX94)))
(flet ($x568 (= gtINDEX92 (select gtFIELD__bitsForTID0__gtAGG____anonstruct_D_Work_4 gtINDEX91)))
(flet ($x564 (= gtINDEX90 (select gtFIELD__bitsForTID0__gtAGG____anonstruct_D_Work_4 gtINDEX89)))
(flet ($x560 (= gtINDEX88 (select gtFIELD__bitsForTID0__gtAGG____anonstruct_D_Work_4 gtINDEX87)))
(flet ($x556 (= gtINDEX86 (select gtFIELD__bitsForTID0__gtAGG____anonstruct_D_Work_4 gtINDEX85)))
(flet ($x552 (= gtINDEX84 (select gtFIELD__bitsForTID0__gtAGG____anonstruct_D_Work_4 gtINDEX83)))
(flet ($x548 (= gtINDEX82 (select gtFIELD__bitsForTID0__gtAGG____anonstruct_D_Work_4 gtINDEX81)))
(flet ($x544 (= gtINDEX80 (select gtFIELD__bitsForTID0__gtAGG____anonstruct_D_Work_4 gtINDEX79)))
(flet ($x540 (= gtINDEX78 (select gtFIELD__bitsForTID0__gtAGG____anonstruct_D_Work_4 gtINDEX77)))
(flet ($x536 (= gtINDEX76 (select gtFIELD__bitsForTID0__gtAGG____anonstruct_D_Work_4 gtINDEX75)))
(flet ($x531 (= gtINDEX73 (select gtFIELD__bitsForTID0__gtAGG____anonstruct_D_Work_4 gtINDEX72)))
(flet ($x526 (= gtINDEX70 (select gtFIELD__bitsForTID0__gtAGG____anonstruct_D_Work_4 gtINDEX69)))
(flet ($x522 (= gtINDEX68 (select gtFIELD__bitsForTID0__gtAGG____anonstruct_D_Work_4 gtINDEX67)))
(flet ($x518 (= gtINDEX66 (select gtFIELD__bitsForTID0__gtAGG____anonstruct_D_Work_4 gtINDEX65)))
(flet ($x512 (= gtINDEX62 (select gtFIELD__bitsForTID0__gtAGG____anonstruct_D_Work_4 gtINDEX61)))
(flet ($x508 (= gtINDEX60 (select gtFIELD__bitsForTID0__gtAGG____anonstruct_D_Work_4 gtINDEX59)))
(flet ($x504 (= gtINDEX58 (select gtFIELD__bitsForTID0__gtAGG____anonstruct_D_Work_4 gtINDEX57)))
(flet ($x493 (= gtINDEX49 (select gtFIELD__bitsForTID0__gtAGG____anonstruct_D_Work_4 gtINDEX48)))
(flet ($x489 (= gtINDEX47 (select gtFIELD__bitsForTID0__gtAGG____anonstruct_D_Work_4 gtINDEX46)))
(flet ($x485 (= gtINDEX45 (select gtFIELD__bitsForTID0__gtAGG____anonstruct_D_Work_4 gtINDEX44)))
(flet ($x481 (= gtINDEX43 (select gtFIELD__bitsForTID0__gtAGG____anonstruct_D_Work_4 gtINDEX42)))
(flet ($x477 (= gtINDEX41 (select gtFIELD__bitsForTID0__gtAGG____anonstruct_D_Work_4 gtINDEX40)))
(flet ($x472 (= gtINDEX38 (select gtFIELD__bitsForTID0__gtAGG____anonstruct_D_Work_4 gtINDEX37)))
(flet ($x468 (= gtINDEX36 (select gtFIELD__bitsForTID0__gtAGG____anonstruct_D_Work_4 gtINDEX35)))
(flet ($x464 (= gtINDEX34 (select gtFIELD__bitsForTID0__gtAGG____anonstruct_D_Work_4 gtINDEX33)))
(flet ($x460 (= gtINDEX32 (select gtFIELD__bitsForTID0__gtAGG____anonstruct_D_Work_4 gtINDEX31)))
(flet ($x456 (= gtINDEX30 (select gtFIELD__bitsForTID0__gtAGG____anonstruct_D_Work_4 gtINDEX29)))
(flet ($x452 (= gtINDEX28 (select gtFIELD__bitsForTID0__gtAGG____anonstruct_D_Work_4 gtINDEX27)))
(flet ($x448 (= gtINDEX26 (select gtFIELD__bitsForTID0__gtAGG____anonstruct_D_Work_4 gtINDEX25)))
(flet ($x444 (= gtINDEX24 (select gtFIELD__bitsForTID0__gtAGG____anonstruct_D_Work_4 gtINDEX23)))
(flet ($x440 (= gtINDEX22 (select gtFIELD__bitsForTID0__gtAGG____anonstruct_D_Work_4 gtINDEX21)))
(flet ($x436 (= gtINDEX20 (select gtFIELD__bitsForTID0__gtAGG____anonstruct_D_Work_4 gtINDEX19)))
(flet ($x432 (= gtINDEX18 (select gtFIELD__bitsForTID0__gtAGG____anonstruct_D_Work_4 gtINDEX17)))
(flet ($x428 (= gtINDEX16 (select gtFIELD__bitsForTID0__gtAGG____anonstruct_D_Work_4 gtINDEX15)))
(flet ($x422 (= gtINDEX12 (select gtFIELD__bitsForTID0__gtAGG____anonstruct_D_Work_4 gtINDEX11)))
(flet ($x418 (= gtINDEX10 (select gtFIELD__bitsForTID0__gtAGG____anonstruct_D_Work_4 gtINDEX9)))
(flet ($x414 (= gtINDEX8 (select gtFIELD__bitsForTID0__gtAGG____anonstruct_D_Work_4 gtINDEX7)))
(let (?x391 (extract[0:0] bv1[32]))
(let (?x401 (store gtFIELD__is_Eng__gtAGG____anonstruct_bitsForTID0_5_1_ gtINDEX122 ?x391))
(flet ($x796 (iff constraint87 (= gtFIELD__is_Eng__gtAGG____anonstruct_bitsForTID0_5_2_ ?x401)))
(let (?x397 (select gtFIELD__is_Eng__gtAGG____anonstruct_bitsForTID0_5_1_ gtINDEX120))
(let (?x392 (store gtFIELD__is_Eng__gtAGG____anonstruct_bitsForTID0_5 gtINDEX118 ?x391))
(flet ($x790 (iff constraint84 (= gtFIELD__is_Eng__gtAGG____anonstruct_bitsForTID0_5_1_ ?x392)))
(let (?x387 (select gtFIELD__is_Eng__gtAGG____anonstruct_bitsForTID0_5 gtINDEX116))
(let (?x384 (store gtFIELD__sent__gtAGG____anonstruct_D_Work_4_1_ gtINDEX114 bv0[32]))
(flet ($x786 (iff constraint82 (= gtFIELD__sent__gtAGG____anonstruct_D_Work_4_2_ ?x384)))
(let (?x216 (bvmul bv4294967295[32] bv1[32]))
(flet ($x382 (= (select gtFIELD__sent__gtAGG____anonstruct_D_Work_4_1_ gtINDEX113) ?x216))
(flet ($x378 (= (select gtFIELD__sent__gtAGG____anonstruct_D_Work_4_1_ gtINDEX112) bv9[32]))
(flet ($x374 (= (select gtFIELD__sent__gtAGG____anonstruct_D_Work_4_1_ gtINDEX111) bv4[32]))
(let (?x369 (select gtFIELD__is_Eng__gtAGG____anonstruct_bitsForTID0_5 gtINDEX110))
(let (?x364 (select gtFIELD__is_active_Eng__gtAGG____anonstruct_bitsForTID0_5 gtINDEX108))
(let (?x361 (store gtFIELD__temporalCounter_i5__gtAGG____anonstruct_D_Work_4 gtINDEX106 bv0[32]))
(flet ($x774 (iff constraint76 (= gtFIELD__temporalCounter_i5__gtAGG____anonstruct_D_Work_4_1_ ?x361)))
(let (?x281 (extract[1:0] bv1[32]))
(let (?x358 (store gtFIELD__is_PURI__gtAGG____anonstruct_bitsForTID0_5 gtINDEX105 ?x281))
(flet ($x772 (iff constraint75 (= gtFIELD__is_PURI__gtAGG____anonstruct_bitsForTID0_5_1_ ?x358)))
(let (?x355 (store gtFIELD__URIex__gtAGG____anonstruct_bitsForTID0_5 gtINDEX103 (extract[0:0] bv0[32])))
(flet ($x770 (iff constraint74 (= gtFIELD__URIex__gtAGG____anonstruct_bitsForTID0_5_1_ ?x355)))
(let (?x351 (store gtFIELD__sh_rst__gtAGG____anonstruct_D_Work_4 gtINDEX101 bv1[32]))
(flet ($x768 (iff constraint73 (= gtFIELD__sh_rst__gtAGG____anonstruct_D_Work_4_1_ ?x351)))
(flet ($x349 (= gtFIELD__n_t_a__gtAGG____anonstruct_D_Work_4_1_ (store gtFIELD__n_t_a__gtAGG____anonstruct_D_Work_4 gtINDEX100 bv0[32])))
(let (?x344 (select gtFIELD__is_PURI__gtAGG____anonstruct_bitsForTID0_5 gtINDEX99))
(let (?x339 (select gtFIELD__is_PURI__gtAGG____anonstruct_bitsForTID0_5 gtINDEX97))
(let (?x334 (select gtFIELD__is_active_PURI__gtAGG____anonstruct_bitsForTID0_5 gtINDEX95))
(flet ($x331 (= (select gtFIELD__sent__gtAGG____anonstruct_D_Work_4_1_ gtINDEX93) bv0[32]))
(let (?x326 (select gtFIELD__is_PVRP__gtAGG____anonstruct_bitsForTID0_5 gtINDEX92))
(let (?x321 (select gtFIELD__is_PVRP__gtAGG____anonstruct_bitsForTID0_5 gtINDEX90))
(let (?x316 (select gtFIELD__is_PVRP__gtAGG____anonstruct_bitsForTID0_5 gtINDEX88))
(let (?x311 (select gtFIELD__is_active_PVRP__gtAGG____anonstruct_bitsForTID0_5 gtINDEX86))
(let (?x156 (extract[1:0] bv0[32]))
(let (?x308 (store gtFIELD__is_PPVARP__gtAGG____anonstruct_bitsForTID0_5_1_ gtINDEX84 ?x156))
(flet ($x746 (iff constraint62 (= gtFIELD__is_PPVARP__gtAGG____anonstruct_bitsForTID0_5_2_ ?x308)))
(let (?x303 (select gtFIELD__is_PPVARP__gtAGG____anonstruct_bitsForTID0_5_1_ gtINDEX82))
(let (?x298 (select gtFIELD__is_PPVARP__gtAGG____anonstruct_bitsForTID0_5_1_ gtINDEX80))
(let (?x293 (select gtFIELD__is_PPVARP__gtAGG____anonstruct_bitsForTID0_5_1_ gtINDEX78))
(let (?x288 (select gtFIELD__is_active_PPVARP__gtAGG____anonstruct_bitsForTID0_5 gtINDEX76))
(let (?x285 (store gtFIELD__temporalCounter_i2__gtAGG____anonstruct_D_Work_4 gtINDEX74 bv0[32]))
(flet ($x736 (iff constraint57 (= gtFIELD__temporalCounter_i2__gtAGG____anonstruct_D_Work_4_1_ ?x285)))
(let (?x282 (store gtFIELD__is_PLRI__gtAGG____anonstruct_bitsForTID0_5 gtINDEX73 ?x281))
(flet ($x734 (iff constraint56 (= gtFIELD__is_PLRI__gtAGG____anonstruct_bitsForTID0_5_1_ ?x282)))
(flet ($x279 (= gtFIELD__n_t_n__gtAGG____anonstruct_D_Work_4_1_ (store gtFIELD__n_t_n__gtAGG____anonstruct_D_Work_4 gtINDEX71 bv0[32])))
(let (?x274 (select gtFIELD__is_PLRI__gtAGG____anonstruct_bitsForTID0_5 gtINDEX70))
(let (?x269 (select gtFIELD__is_PLRI__gtAGG____anonstruct_bitsForTID0_5 gtINDEX68))
(let (?x264 (select gtFIELD__is_active_PLRI__gtAGG____anonstruct_bitsForTID0_5 gtINDEX66))
(flet ($x259 (= (select gtFIELD__sent__gtAGG____anonstruct_D_Work_4_1_ gtINDEX64) bv0[32]))
(flet ($x255 (= (select gtFIELD__sent__gtAGG____anonstruct_D_Work_4_1_ gtINDEX63) bv0[32]))
(let (?x250 (select gtFIELD__is_PAVI__gtAGG____anonstruct_bitsForTID0_5 gtINDEX62))
(let (?x245 (select gtFIELD__is_PAVI__gtAGG____anonstruct_bitsForTID0_5 gtINDEX60))
(let (?x240 (select gtFIELD__is_active_PAVI__gtAGG____anonstruct_bitsForTID0_5 gtINDEX58))
(flet ($x232 (= gtFIELD__sent__gtAGG____anonstruct_D_Work_4_1_ (store gtFIELD__sent__gtAGG____anonstruct_D_Work_4 gtINDEX56 ?x216)))
(flet ($x229 (= (select gtFIELD__sent__gtAGG____anonstruct_D_Work_4 gtINDEX55) bv3[32]))
(flet ($x225 (= (select gtFIELD__sent__gtAGG____anonstruct_D_Work_4 gtINDEX54) bv2[32]))
(flet ($x221 (= (select gtFIELD__sent__gtAGG____anonstruct_D_Work_4 gtINDEX53) bv1[32]))
(flet ($x217 (= (select gtFIELD__sent__gtAGG____anonstruct_D_Work_4 gtINDEX52) ?x216))
(flet ($x212 (= (select gtFIELD__sent__gtAGG____anonstruct_D_Work_4 gtINDEX51) bv9[32]))
(flet ($x207 (= (select gtFIELD__sent__gtAGG____anonstruct_D_Work_4 gtINDEX50) bv4[32]))
(let (?x203 (zero_extend[31] (select gtFIELD__is_Eng__gtAGG____anonstruct_bitsForTID0_5 gtINDEX49)))
(let (?x197 (select gtFIELD__is_active_Eng__gtAGG____anonstruct_bitsForTID0_5 gtINDEX47))
(let (?x193 (select gtFIELD__is_PURI__gtAGG____anonstruct_bitsForTID0_5 gtINDEX45))
(let (?x188 (select gtFIELD__is_PURI__gtAGG____anonstruct_bitsForTID0_5 gtINDEX43))
(let (?x183 (select gtFIELD__is_active_PURI__gtAGG____anonstruct_bitsForTID0_5 gtINDEX41))
(flet ($x180 (= (select gtFIELD__sent__gtAGG____anonstruct_D_Work_4 gtINDEX39) bv0[32]))
(let (?x175 (select gtFIELD__is_PVRP__gtAGG____anonstruct_bitsForTID0_5 gtINDEX38))
(let (?x170 (select gtFIELD__is_PVRP__gtAGG____anonstruct_bitsForTID0_5 gtINDEX36))
(let (?x165 (select gtFIELD__is_PVRP__gtAGG____anonstruct_bitsForTID0_5 gtINDEX34))
(let (?x160 (select gtFIELD__is_active_PVRP__gtAGG____anonstruct_bitsForTID0_5 gtINDEX32))
(let (?x157 (store gtFIELD__is_PPVARP__gtAGG____anonstruct_bitsForTID0_5 gtINDEX30 ?x156))
(flet ($x666 (iff constraint22 (= gtFIELD__is_PPVARP__gtAGG____anonstruct_bitsForTID0_5_1_ ?x157)))
(let (?x150 (select gtFIELD__is_PPVARP__gtAGG____anonstruct_bitsForTID0_5 gtINDEX28))
(let (?x145 (select gtFIELD__is_PPVARP__gtAGG____anonstruct_bitsForTID0_5 gtINDEX26))
(let (?x140 (select gtFIELD__is_PPVARP__gtAGG____anonstruct_bitsForTID0_5 gtINDEX24))
(let (?x135 (select gtFIELD__is_active_PPVARP__gtAGG____anonstruct_bitsForTID0_5 gtINDEX22))
(let (?x128 (select gtFIELD__is_PLRI__gtAGG____anonstruct_bitsForTID0_5 gtINDEX20))
(let (?x123 (select gtFIELD__is_PLRI__gtAGG____anonstruct_bitsForTID0_5 gtINDEX18))
(let (?x118 (select gtFIELD__is_active_PLRI__gtAGG____anonstruct_bitsForTID0_5 gtINDEX16))
(flet ($x112 (= (select gtFIELD__sent__gtAGG____anonstruct_D_Work_4 gtINDEX14) bv0[32]))
(flet ($x108 (= (select gtFIELD__sent__gtAGG____anonstruct_D_Work_4 gtINDEX13) bv0[32]))
(let (?x102 (select gtFIELD__is_PAVI__gtAGG____anonstruct_bitsForTID0_5 gtINDEX12))
(let (?x97 (select gtFIELD__is_PAVI__gtAGG____anonstruct_bitsForTID0_5 gtINDEX10))
(let (?x91 (select gtFIELD__is_active_PAVI__gtAGG____anonstruct_bitsForTID0_5 gtINDEX8))
(let (?x87 (select gtFIELD__temporalCounter_i5__gtAGG____anonstruct_D_Work_4 gtINDEX6))
(let (?x81 (select gtFIELD__temporalCounter_i4__gtAGG____anonstruct_D_Work_4 gtINDEX4))
(let (?x84 (store gtFIELD__temporalCounter_i4__gtAGG____anonstruct_D_Work_4 gtINDEX5 (bvadd ?x81 bv1[32])))
(flet ($x632 (iff constraint5 (= gtFIELD__temporalCounter_i4__gtAGG____anonstruct_D_Work_4_1_ ?x84)))
(let (?x77 (select gtFIELD__temporalCounter_i4__gtAGG____anonstruct_D_Work_4 gtINDEX3))
(let (?x73 (select gtFIELD__temporalCounter_i3__gtAGG____anonstruct_D_Work_4 gtINDEX2))
(let (?x69 (select gtFIELD__temporalCounter_i2__gtAGG____anonstruct_D_Work_4 gtINDEX1))
(let (?x64 (select gtFIELD__temporalCounter_i1__gtAGG____anonstruct_D_Work_4 gtINDEX0))
(flet ($x1043 (and (iff constraint0 (= sfEvent_ bv8[32])) (iff constraint1 (not (bvult ?x64 bv4294967295[32]))) (iff constraint2 (not (bvult ?x69 bv4294967295[32]))) (iff constraint3 (not (bvult ?x73 bv4294967295[32]))) (iff constraint4 (bvult ?x77 bv4294967295[32])) $x632 (iff constraint6 (not (bvult ?x87 bv4294967295[32]))) (iff constraint7 (not (= (zero_extend[31] ?x91) bv0[32]))) (iff constraint8 (not (= (zero_extend[29] ?x97) bv1[32]))) (iff constraint9 (= (zero_extend[29] ?x102) bv2[32])) (iff constraint10 (not $x108)) (iff constraint11 (not $x112)) (iff constraint12 (not (= sfEvent_ bv5[32]))) (iff constraint13 (not (= (zero_extend[31] ?x118) bv0[32]))) (iff constraint14 (not (= (zero_extend[30] ?x123) bv1[32]))) (iff constraint15 (= (zero_extend[30] ?x128) bv2[32])) (iff constraint16 (not (= sfEvent_ bv4[32]))) (iff constraint17 (not (= sfEvent_ bv5[32]))) (iff constraint18 (not (= (zero_extend[31] ?x135) bv0[32]))) (iff constraint19 (not (= (zero_extend[30] ?x140) bv1[32]))) (iff constraint20 (not (= (zero_extend[30] ?x145) bv2[32]))) (iff constraint21 (not (= (zero_extend[30] ?x150) bv3[32]))) $x666 (iff constraint23 (not (= (zero_extend[31] ?x160) bv0[32]))) (iff constraint24 (not (= (zero_extend[30] ?x165) bv1[32]))) (iff constraint25 (not (= (zero_extend[30] ?x170) bv2[32]))) (iff constraint26 (= (zero_extend[30] ?x175) bv3[32])) (iff constraint27 (not $x180)) (iff constraint28 (not (= (zero_extend[31] ?x183) bv0[32]))) (iff constraint29 (not (= (zero_extend[30] ?x188) bv1[32]))) (iff constraint30 (= (zero_extend[30] ?x193) bv2[32])) (iff constraint31 (not (= sfEvent_ bv4[32]))) (iff constraint32 (not (= sfEvent_ bv5[32]))) (iff constraint33 (not (= (zero_extend[31] ?x197) bv0[32]))) (iff constraint34 (= ?x203 bv1[32])) (iff constraint35 (not $x207)) (iff constraint36 (not $x212)) (iff constraint37 (not $x217)) (iff constraint38 (not $x221)) (iff constraint39 (not $x225)) (iff constraint40 $x229) (iff constraint41 $x232) (iff constraint42 (= sf_previousEvent_1_ sfEvent_)) (iff constraint43 (= sfEvent__1_ bv4[32])) (iff constraint44 (not (= sfEvent__1_ bv8[32]))) (iff constraint45 (not (= (zero_extend[31] ?x240) bv0[32]))) (iff constraint46 (not (= (zero_extend[29] ?x245) bv1[32]))) (iff constraint47 (= (zero_extend[29] ?x250) bv2[32])) (iff constraint48 (not $x255)) (iff constraint49 (not $x259)) (iff constraint50 (not (= sfEvent__1_ bv5[32]))) (iff constraint51 (not (= (zero_extend[31] ?x264) bv0[32]))) (iff constraint52 (not (= (zero_extend[30] ?x269) bv1[32]))) (iff constraint53 (= (zero_extend[30] ?x274) bv2[32])) (iff constraint54 (= sfEvent__1_ bv4[32])) (iff constraint55 $x279) $x734 $x736 (iff constraint58 (not (= (zero_extend[31] ?x288) bv0[32]))) (iff constraint59 (not (= (zero_extend[30] ?x293) bv1[32]))) (iff constraint60 (not (= (zero_extend[30] ?x298) bv2[32]))) (iff constraint61 (not (= (zero_extend[30] ?x303) bv3[32]))) $x746 (iff constraint63 (not (= (zero_extend[31] ?x311) bv0[32]))) (iff constraint64 (not (= (zero_extend[30] ?x316) bv1[32]))) (iff constraint65 (not (= (zero_extend[30] ?x321) bv2[32]))) (iff constraint66 (= (zero_extend[30] ?x326) bv3[32])) (iff constraint67 (not $x331)) (iff constraint68 (not (= (zero_extend[31] ?x334) bv0[32]))) (iff constraint69 (not (= (zero_extend[30] ?x339) bv1[32]))) (iff constraint70 (= (zero_extend[30] ?x344) bv2[32])) (iff constraint71 (= sfEvent__1_ bv4[32])) (iff constraint72 $x349) $x768 $x770 $x772 $x774 (iff constraint77 (not (= (zero_extend[31] ?x364) bv0[32]))) (iff constraint78 (= (zero_extend[31] ?x369) bv1[32])) (iff constraint79 (not $x374)) (iff constraint80 (not $x378)) (iff constraint81 $x382) $x786 (iff constraint83 (= (zero_extend[31] ?x387) bv1[32])) $x790 (iff constraint85 (= sfEvent__2_ sf_previousEvent_1_)) (iff constraint86 (= (zero_extend[31] ?x397) bv1[32])) $x796 (iff constraint88 (= gtINDEX0 gtAGG__rtDWork)) (iff constraint89 (= gtINDEX1 gtAGG__rtDWork)) (iff constraint90 (= gtINDEX2 gtAGG__rtDWork)) (iff constraint91 (= gtINDEX3 gtAGG__rtDWork)) (iff constraint92 (= gtINDEX4 gtAGG__rtDWork)) (iff constraint93 (= gtINDEX5 gtAGG__rtDWork)) (iff constraint94 (= gtINDEX6 gtAGG__rtDWork)) (iff constraint95 (= gtINDEX7 gtAGG__rtDWork)) (iff constraint96 $x414) (iff constraint97 (= gtINDEX9 gtAGG__rtDWork)) (iff constraint98 $x418) (iff constraint99 (= gtINDEX11 gtAGG__rtDWork)) (iff constraint100 $x422) (iff constraint101 (= gtINDEX13 gtAGG__rtDWork)) (iff constraint102 (= gtINDEX14 gtAGG__rtDWork)) (iff constraint103 (= gtINDEX15 gtAGG__rtDWork)) (iff constraint104 $x428) (iff constraint105 (= gtINDEX17 gtAGG__rtDWork)) (iff constraint106 $x432) (iff constraint107 (= gtINDEX19 gtAGG__rtDWork)) (iff constraint108 $x436) (iff constraint109 (= gtINDEX21 gtAGG__rtDWork)) (iff constraint110 $x440) (iff constraint111 (= gtINDEX23 gtAGG__rtDWork)) (iff constraint112 $x444) (iff constraint113 (= gtINDEX25 gtAGG__rtDWork)) (iff constraint114 $x448) (iff constraint115 (= gtINDEX27 gtAGG__rtDWork)) (iff constraint116 $x452) (iff constraint117 (= gtINDEX29 gtAGG__rtDWork)) (iff constraint118 $x456) (iff constraint119 (= gtINDEX31 gtAGG__rtDWork)) (iff constraint120 $x460) (iff constraint121 (= gtINDEX33 gtAGG__rtDWork)) (iff constraint122 $x464) (iff constraint123 (= gtINDEX35 gtAGG__rtDWork)) (iff constraint124 $x468) (iff constraint125 (= gtINDEX37 gtAGG__rtDWork)) (iff constraint126 $x472) (iff constraint127 (= gtINDEX39 gtAGG__rtDWork)) (iff constraint128 (= gtINDEX40 gtAGG__rtDWork)) (iff constraint129 $x477) (iff constraint130 (= gtINDEX42 gtAGG__rtDWork)) (iff constraint131 $x481) (iff constraint132 (= gtINDEX44 gtAGG__rtDWork)) (iff constraint133 $x485) (iff constraint134 (= gtINDEX46 gtAGG__rtDWork)) (iff constraint135 $x489) (iff constraint136 (= gtINDEX48 gtAGG__rtDWork)) (iff constraint137 $x493) (iff constraint138 (= gtINDEX50 gtAGG__rtDWork)) (iff constraint139 (= gtINDEX51 gtAGG__rtDWork)) (iff constraint140 (= gtINDEX52 gtAGG__rtDWork)) (iff constraint141 (= gtINDEX53 gtAGG__rtDWork)) (iff constraint142 (= gtINDEX54 gtAGG__rtDWork)) (iff constraint143 (= gtINDEX55 gtAGG__rtDWork)) (iff constraint144 (= gtINDEX56 gtAGG__rtDWork)) (iff constraint145 (= gtINDEX57 gtAGG__rtDWork)) (iff constraint146 $x504) (iff constraint147 (= gtINDEX59 gtAGG__rtDWork)) (iff constraint148 $x508) (iff constraint149 (= gtINDEX61 gtAGG__rtDWork)) (iff constraint150 $x512) (iff constraint151 (= gtINDEX63 gtAGG__rtDWork)) (iff constraint152 (= gtINDEX64 gtAGG__rtDWork)) (iff constraint153 (= gtINDEX65 gtAGG__rtDWork)) (iff constraint154 $x518) (iff constraint155 (= gtINDEX67 gtAGG__rtDWork)) (iff constraint156 $x522) (iff constraint157 (= gtINDEX69 gtAGG__rtDWork)) (iff constraint158 $x526) (iff constraint159 (= gtINDEX71 gtAGG__rtDWork)) (iff constraint160 (= gtINDEX72 gtAGG__rtDWork)) (iff constraint161 $x531) (iff constraint162 (= gtINDEX74 gtAGG__rtDWork)) (iff constraint163 (= gtINDEX75 gtAGG__rtDWork)) (iff constraint164 $x536) (iff constraint165 (= gtINDEX77 gtAGG__rtDWork)) (iff constraint166 $x540) (iff constraint167 (= gtINDEX79 gtAGG__rtDWork)) (iff constraint168 $x544) (iff constraint169 (= gtINDEX81 gtAGG__rtDWork)) (iff constraint170 $x548) (iff constraint171 (= gtINDEX83 gtAGG__rtDWork)) (iff constraint172 $x552) (iff constraint173 (= gtINDEX85 gtAGG__rtDWork)) (iff constraint174 $x556) (iff constraint175 (= gtINDEX87 gtAGG__rtDWork)) (iff constraint176 $x560) (iff constraint177 (= gtINDEX89 gtAGG__rtDWork)) (iff constraint178 $x564) (iff constraint179 (= gtINDEX91 gtAGG__rtDWork)) (iff constraint180 $x568) (iff constraint181 (= gtINDEX93 gtAGG__rtDWork)) (iff constraint182 (= gtINDEX94 gtAGG__rtDWork)) (iff constraint183 $x573) (iff constraint184 (= gtINDEX96 gtAGG__rtDWork)) (iff constraint185 $x577) (iff constraint186 (= gtINDEX98 gtAGG__rtDWork)) (iff constraint187 $x581) (iff constraint188 (= gtINDEX100 gtAGG__rtDWork)) (iff constraint189 (= gtINDEX101 gtAGG__rtDWork)) (iff constraint190 (= gtINDEX102 gtAGG__rtDWork)) (iff constraint191 (= gtINDEX103 ?x586)) (iff constraint192 (= gtINDEX104 gtAGG__rtDWork)) (iff constraint193 (= gtINDEX105 ?x590)) (iff constraint194 (= gtINDEX106 gtAGG__rtDWork)) (iff constraint195 (= gtINDEX107 gtAGG__rtDWork)) (iff constraint196 (= gtINDEX108 ?x595)) (iff constraint197 (= gtINDEX109 gtAGG__rtDWork)) (iff constraint198 (= gtINDEX110 ?x599)) (iff constraint199 (= gtINDEX111 gtAGG__rtDWork)) (iff constraint200 (= gtINDEX112 gtAGG__rtDWork)) (iff constraint201 (= gtINDEX113 gtAGG__rtDWork)) (iff constraint202 (= gtINDEX114 gtAGG__rtDWork)) (iff constraint203 (= gtINDEX115 gtAGG__rtDWork)) (iff constraint204 (= gtINDEX116 ?x607)) (iff constraint205 (= gtINDEX117 gtAGG__rtDWork)) (iff constraint206 (= gtINDEX118 ?x611)) (iff constraint207 (= gtINDEX119 gtAGG__rtDWork)) (iff constraint208 (= gtINDEX120 ?x615)) (iff constraint209 (= gtINDEX121 gtAGG__rtDWork)) (iff constraint210 (= gtINDEX122 ?x619))))
(and $x1043 $x1044))))))))))))))))))))))))))))))))))))))))))))))))))))))))))))))))))))))))))))))))))))))))))))))))))))))))))))))))))))))))))))))))))))))))))))))
)
